8543
2269
6619
1437
569
7569
3937
4186
8234
7692
2851
5750
4616
769
731
1019
9427
3739
8183
2718
3312
3913
8182
1595
8589
6790
1150
6607
3511
2798
6398
3043
1237
5023
6824
3181
8454
2872
9852
3495
1054
4021
5788
4778
6808
4119
9763
9573
9103
1576
